# Solution for model count
# Objective value = 10
z#1 1
z#2 0
z#3 0
z#4 0
z#5 1
z#6 0
z#7 0
z#8 1
z#9 1
z#10 0
z#11 0
z#12 1
z#13 0
z#14 0
z#15 1
z#16 0
z#17 0
z#18 0
z#19 1
z#20 1
z#21 1
z#22 0
z#23 1
z#24 0
x#24 0
x#23 1160
x#22 0
x#21 519
x#20 1025
x#19 171
x#18 0
x#17 0
x#16 0
x#15 902
x#14 0
x#13 0
x#12 2737
x#11 0
x#10 0
x#9 188
x#8 932
x#7 0
x#6 0
x#5 1351
x#4 0
x#3 0
x#2 0
x#1 1015
